data/mip_solutions/furman_sahinidis/transportation/6sp1_cplex.sol
Elapsed time: 0.0262441635132
Nodes explored: 0
Upper bound: 6.0
Lower bound: 6.0
y[0,0]=1
y[0,1]=1
y[1,0]=1
y[1,2]=1
y[2,2]=1
y[2,3]=1
q[0,2,0,2]=800.0
q[0,2,0,3]=24.8
q[0,2,0,4]=320.0
q[0,2,0,5]=160.0
q[0,2,1,4]=95.2
q[0,3,0,3]=781.2
q[0,3,1,3]=4258.8
q[0,4,1,4]=560.0
q[0,5,0,5]=1120.0
q[1,0,2,2]=527.0
q[1,0,2,3]=1139.0
q[1,1,0,3]=238.0
q[1,2,2,3]=1190.0
q[1,3,0,3]=1836.0
q[1,3,2,3]=306.0
q[2,3,2,3]=2108.0
q[2,3,3,5]=3940.0
q[2,4,3,5]=672.0
q[2,5,3,5]=1344.0
